c Generated map
c Size: 12 * 12, weights in range: 1 to 10, walls: True, with ratio 0.05
c dim 5 of 5
c
p sp 144 238
c graph contains 144 nodes and 238 arcs
c
a 1 13 8
a 13 1 8
a 1 2 8
a 2 1 8
a 2 14 1
a 14 2 1
a 2 3 10
a 3 2 10
a 3 15 10
a 15 3 10
a 3 4 10
a 4 3 10
a 4 16 8
a 16 4 8
a 4 5 2
a 5 4 2
a 5 17 5
a 17 5 5
a 5 6 3
a 6 5 3
a 6 18 2
a 18 6 2
a 6 7 10
a 7 6 10
a 7 19 9
a 19 7 9
a 7 8 8
a 8 7 8
a 8 20 1
a 20 8 1
a 8 9 9
a 9 8 9
a 9 21 5
a 21 9 5
a 9 10 2
a 10 9 2
a 10 22 7
a 22 10 7
a 10 11 6
a 11 10 6
a 11 23 4
a 23 11 4
a 11 12 10
a 12 11 10
a 12 24 7
a 24 12 7
a 13 25 6
a 25 13 6
a 13 14 3
a 14 13 3
a 14 26 1
a 26 14 1
a 14 15 6
a 15 14 6
a 15 27 2
a 27 15 2
a 15 16 5
a 16 15 5
a 16 28 8
a 28 16 8
a 16 17 10
a 17 16 10
a 17 29 10
a 29 17 10
a 17 18 4
a 18 17 4
a 18 30 2
a 30 18 2
a 18 19 5
a 19 18 5
a 19 31 5
a 31 19 5
a 19 20 5
a 20 19 5
a 20 32 1
a 32 20 1
a 20 21 9
a 21 20 9
a 21 33 4
a 33 21 4
a 21 22 7
a 22 21 7
a 22 34 6
a 34 22 6
a 22 23 6
a 23 22 6
a 23 35 3
a 35 23 3
a 23 24 8
a 24 23 8
a 24 36 7
a 36 24 7
a 25 37 4
a 37 25 4
a 25 26 4
a 26 25 4
a 26 38 2
a 38 26 2
a 26 27 1
a 27 26 1
a 27 39 5
a 39 27 5
a 27 28 8
a 28 27 8
a 28 40 3
a 40 28 3
a 28 29 9
a 29 28 9
a 29 41 10
a 41 29 10
a 29 30 1
a 30 29 1
a 30 42 4
a 42 30 4
a 30 31 9
a 31 30 9
a 31 43 8
a 43 31 8
a 31 32 8
a 32 31 8
a 32 33 7
a 33 32 7
a 33 45 4
a 45 33 4
a 33 34 5
a 34 33 5
a 34 35 1
a 35 34 1
a 35 47 4
a 47 35 4
a 35 36 7
a 36 35 7
a 36 48 1
a 48 36 1
a 37 49 1
a 49 37 1
a 37 38 2
a 38 37 2
a 38 50 6
a 50 38 6
a 38 39 8
a 39 38 8
a 39 51 5
a 51 39 5
a 39 40 3
a 40 39 3
a 40 52 6
a 52 40 6
a 40 41 6
a 41 40 6
a 41 53 10
a 53 41 10
a 41 42 3
a 42 41 3
a 42 54 4
a 54 42 4
a 42 43 3
a 43 42 3
a 43 55 6
a 55 43 6
a 45 57 2
a 57 45 2
a 47 59 2
a 59 47 2
a 47 48 2
a 48 47 2
a 48 60 6
a 60 48 6
a 49 61 1
a 61 49 1
a 49 50 7
a 50 49 7
a 50 51 1
a 51 50 1
a 51 63 2
a 63 51 2
a 51 52 10
a 52 51 10
a 52 64 2
a 64 52 2
a 52 53 8
a 53 52 8
a 53 65 5
a 65 53 5
a 53 54 3
a 54 53 3
a 54 66 6
a 66 54 6
a 54 55 7
a 55 54 7
a 55 67 3
a 67 55 3
a 55 56 5
a 56 55 5
a 56 68 4
a 68 56 4
a 56 57 9
a 57 56 9
a 57 69 9
a 69 57 9
a 57 58 4
a 58 57 4
a 58 70 2
a 70 58 2
a 58 59 10
a 59 58 10
a 59 71 8
a 71 59 8
a 59 60 3
a 60 59 3
a 60 72 9
a 72 60 9
a 61 73 5
a 73 61 5
a 63 75 9
a 75 63 9
a 63 64 10
a 64 63 10
a 64 76 8
a 76 64 8
a 64 65 10
a 65 64 10
a 65 77 8
a 77 65 8
a 65 66 1
a 66 65 1
a 66 78 1
a 78 66 1
a 66 67 10
a 67 66 10
a 67 79 2
a 79 67 2
a 67 68 2
a 68 67 2
a 68 80 1
a 80 68 1
a 68 69 3
a 69 68 3
a 69 81 2
a 81 69 2
a 69 70 6
a 70 69 6
a 70 82 9
a 82 70 9
a 70 71 4
a 71 70 4
a 71 83 8
a 83 71 8
a 71 72 2
a 72 71 2
a 72 84 6
a 84 72 6
a 73 74 4
a 74 73 4
a 74 86 2
a 86 74 2
a 74 75 5
a 75 74 5
a 75 87 5
a 87 75 5
a 75 76 6
a 76 75 6
a 76 88 7
a 88 76 7
a 76 77 10
a 77 76 10
a 77 89 9
a 89 77 9
a 77 78 7
a 78 77 7
a 78 90 6
a 90 78 6
a 78 79 1
a 79 78 1
a 79 91 4
a 91 79 4
a 79 80 7
a 80 79 7
a 80 92 1
a 92 80 1
a 80 81 2
a 81 80 2
a 81 93 6
a 93 81 6
a 81 82 9
a 82 81 9
a 82 94 9
a 94 82 9
a 82 83 7
a 83 82 7
a 83 95 4
a 95 83 4
a 83 84 5
a 84 83 5
a 84 96 5
a 96 84 5
a 86 87 7
a 87 86 7
a 87 99 1
a 99 87 1
a 87 88 1
a 88 87 1
a 88 100 1
a 100 88 1
a 88 89 6
a 89 88 6
a 89 101 7
a 101 89 7
a 89 90 6
a 90 89 6
a 90 102 1
a 102 90 1
a 90 91 9
a 91 90 9
a 91 103 10
a 103 91 10
a 91 92 8
a 92 91 8
a 92 104 6
a 104 92 6
a 92 93 1
a 93 92 1
a 93 105 4
a 105 93 4
a 93 94 10
a 94 93 10
a 94 106 1
a 106 94 1
a 94 95 4
a 95 94 4
a 95 107 6
a 107 95 6
a 95 96 8
a 96 95 8
a 96 108 1
a 108 96 1
a 97 109 5
a 109 97 5
a 99 111 6
a 111 99 6
a 99 100 8
a 100 99 8
a 100 112 3
a 112 100 3
a 100 101 10
a 101 100 10
a 101 113 4
a 113 101 4
a 101 102 5
a 102 101 5
a 102 114 1
a 114 102 1
a 102 103 9
a 103 102 9
a 103 115 9
a 115 103 9
a 103 104 3
a 104 103 3
a 104 116 3
a 116 104 3
a 104 105 4
a 105 104 4
a 105 117 2
a 117 105 2
a 105 106 10
a 106 105 10
a 106 118 10
a 118 106 10
a 106 107 3
a 107 106 3
a 107 119 9
a 119 107 9
a 107 108 3
a 108 107 3
a 108 120 1
a 120 108 1
a 109 110 2
a 110 109 2
a 110 122 9
a 122 110 9
a 110 111 3
a 111 110 3
a 111 123 3
a 123 111 3
a 111 112 9
a 112 111 9
a 112 124 2
a 124 112 2
a 112 113 3
a 113 112 3
a 113 125 3
a 125 113 3
a 113 114 2
a 114 113 2
a 114 126 10
a 126 114 10
a 114 115 10
a 115 114 10
a 115 127 4
a 127 115 4
a 115 116 10
a 116 115 10
a 116 117 7
a 117 116 7
a 117 129 2
a 129 117 2
a 117 118 6
a 118 117 6
a 118 130 5
a 130 118 5
a 118 119 6
a 119 118 6
a 119 131 5
a 131 119 5
a 119 120 1
a 120 119 1
a 120 132 6
a 132 120 6
a 122 134 6
a 134 122 6
a 122 123 9
a 123 122 9
a 123 135 2
a 135 123 2
a 123 124 4
a 124 123 4
a 124 136 8
a 136 124 8
a 124 125 6
a 125 124 6
a 125 137 9
a 137 125 9
a 125 126 4
a 126 125 4
a 126 138 1
a 138 126 1
a 126 127 3
a 127 126 3
a 127 139 6
a 139 127 6
a 129 141 5
a 141 129 5
a 129 130 5
a 130 129 5
a 130 142 3
a 142 130 3
a 130 131 6
a 131 130 6
a 131 143 3
a 143 131 3
a 131 132 10
a 132 131 10
a 132 144 10
a 144 132 10
a 133 134 5
a 134 133 5
a 134 135 5
a 135 134 5
a 135 136 5
a 136 135 5
a 136 137 2
a 137 136 2
a 137 138 6
a 138 137 6
a 138 139 6
a 139 138 6
a 139 140 7
a 140 139 7
a 140 141 2
a 141 140 2
a 141 142 3
a 142 141 3
a 142 143 3
a 143 142 3
a 143 144 6
a 144 143 6
